5 5 2 10
7 4 1 20 12 
0.07 0.07 1.48 3.96 2.16 
2.15 3.69 2.92 3.04 3.62 
2 2 2 2 2 
0.36 1.9 0.94 0.67 1.74 
1.19 0.87 3.4 1.03 2.05 
1 1 1 1 1 
1 1 1 1 1 
1 1 1 1 1 
0.45 0.57 0.11 0.78 0.36 
0.79 0.72 0.13 0.48 0.11 
0.01 0.01 0.01 0.01 0.01 
0.02 0.02 0.02 0.02 0.02 
0.03 0.03 0.03 0.03 0.03 
0.51 0.51 0.51 0.51 0.51 
1.01 1.01 1.01 1.01 1.01 
